logs/full/max/full-06-15-0.lp
\ LP format - for model browsing. Use MPS format to capture full model detail.
Maximize
  x0,1_1 + x0,1_4 + x0,1_6 + x0,1_7 + x0,1_9 + x0,1_10 + x0,1_12 + x0,1_13
   + x0,1_14 + x0,1_16 + x0,1_18 + x0,1_19 + x0,1_20 + x0,1_28 + x0,1_32
   + x0,2_1 + x0,2_4 + x0,2_6 + x0,2_7 + x0,2_9 + x0,2_10 + x0,2_12
   + x0,2_13 + x0,2_14 + x0,2_16 + x0,2_18 + x0,2_19 + x0,2_20 + x0,2_28
   + x0,2_32 + x0,3_1 + x0,3_4 + x0,3_6 + x0,3_7 + x0,3_9 + x0,3_10
   + x0,3_12 + x0,3_13 + x0,3_14 + x0,3_16 + x0,3_18 + x0,3_19 + x0,3_20
   + x0,3_28 + x0,3_32 + x0,4_1 + x0,4_4 + x0,4_6 + x0,4_7 + x0,4_9
   + x0,4_10 + x0,4_12 + x0,4_13 + x0,4_14 + x0,4_16 + x0,4_18 + x0,4_19
   + x0,4_20 + x0,4_28 + x0,4_32 + x0,5_1 + x0,5_4 + x0,5_6 + x0,5_7
   + x0,5_9 + x0,5_10 + x0,5_12 + x0,5_13 + x0,5_14 + x0,5_16 + x0,5_18
   + x0,5_19 + x0,5_20 + x0,5_28 + x0,5_32 + x0,6_1 + x0,6_4 + x0,6_6
   + x0,6_7 + x0,6_9 + x0,6_10 + x0,6_12 + x0,6_13 + x0,6_14 + x0,6_16
   + x0,6_18 + x0,6_19 + x0,6_20 + x0,6_28 + x0,6_32 + x1,2_1 + x1,2_4
   + x1,2_6 + x1,2_7 + x1,2_9 + x1,2_10 + x1,2_12 + x1,2_13 + x1,2_14
   + x1,2_16 + x1,2_18 + x1,2_19 + x1,2_20 + x1,2_28 + x1,2_32 + x1,3_1
   + x1,3_4 + x1,3_6 + x1,3_7 + x1,3_9 + x1,3_10 + x1,3_12 + x1,3_13
   + x1,3_14 + x1,3_16 + x1,3_18 + x1,3_19 + x1,3_20 + x1,3_28 + x1,3_32
   + x1,4_1 + x1,4_4 + x1,4_6 + x1,4_7 + x1,4_9 + x1,4_10 + x1,4_12
   + x1,4_13 + x1,4_14 + x1,4_16 + x1,4_18 + x1,4_19 + x1,4_20 + x1,4_28
   + x1,4_32 + x1,5_1 + x1,5_4 + x1,5_6 + x1,5_7 + x1,5_9 + x1,5_10
   + x1,5_12 + x1,5_13 + x1,5_14 + x1,5_16 + x1,5_18 + x1,5_19 + x1,5_20
   + x1,5_28 + x1,5_32 + x1,6_1 + x1,6_4 + x1,6_6 + x1,6_7 + x1,6_9
   + x1,6_10 + x1,6_12 + x1,6_13 + x1,6_14 + x1,6_16 + x1,6_18 + x1,6_19
   + x1,6_20 + x1,6_28 + x1,6_32 + x2,3_1 + x2,3_4 + x2,3_6 + x2,3_7
   + x2,3_9 + x2,3_10 + x2,3_12 + x2,3_13 + x2,3_14 + x2,3_16 + x2,3_18
   + x2,3_19 + x2,3_20 + x2,3_28 + x2,3_32 + x2,4_1 + x2,4_4 + x2,4_6
   + x2,4_7 + x2,4_9 + x2,4_10 + x2,4_12 + x2,4_13 + x2,4_14 + x2,4_16
   + x2,4_18 + x2,4_19 + x2,4_20 + x2,4_28 + x2,4_32 + x2,5_1 + x2,5_4
   + x2,5_6 + x2,5_7 + x2,5_9 + x2,5_10 + x2,5_12 + x2,5_13 + x2,5_14
   + x2,5_16 + x2,5_18 + x2,5_19 + x2,5_20 + x2,5_28 + x2,5_32 + x2,6_1
   + x2,6_4 + x2,6_6 + x2,6_7 + x2,6_9 + x2,6_10 + x2,6_12 + x2,6_13
   + x2,6_14 + x2,6_16 + x2,6_18 + x2,6_19 + x2,6_20 + x2,6_28 + x2,6_32
   + x3,4_1 + x3,4_4 + x3,4_6 + x3,4_7 + x3,4_9 + x3,4_10 + x3,4_12
   + x3,4_13 + x3,4_14 + x3,4_16 + x3,4_18 + x3,4_19 + x3,4_20 + x3,4_28
   + x3,4_32 + x3,5_1 + x3,5_4 + x3,5_6 + x3,5_7 + x3,5_9 + x3,5_10
   + x3,5_12 + x3,5_13 + x3,5_14 + x3,5_16 + x3,5_18 + x3,5_19 + x3,5_20
   + x3,5_28 + x3,5_32 + x3,6_1 + x3,6_4 + x3,6_6 + x3,6_7 + x3,6_9
   + x3,6_10 + x3,6_12 + x3,6_13 + x3,6_14 + x3,6_16 + x3,6_18 + x3,6_19
   + x3,6_20 + x3,6_28 + x3,6_32 + x4,5_1 + x4,5_4 + x4,5_6 + x4,5_7
   + x4,5_9 + x4,5_10 + x4,5_12 + x4,5_13 + x4,5_14 + x4,5_16 + x4,5_18
   + x4,5_19 + x4,5_20 + x4,5_28 + x4,5_32 + x4,6_1 + x4,6_4 + x4,6_6
   + x4,6_7 + x4,6_9 + x4,6_10 + x4,6_12 + x4,6_13 + x4,6_14 + x4,6_16
   + x4,6_18 + x4,6_19 + x4,6_20 + x4,6_28 + x4,6_32 + x5,6_1 + x5,6_4
   + x5,6_6 + x5,6_7 + x5,6_9 + x5,6_10 + x5,6_12 + x5,6_13 + x5,6_14
   + x5,6_16 + x5,6_18 + x5,6_19 + x5,6_20 + x5,6_28 + x5,6_32
Subject To
 R0: x0,1_1 + x0,2_1 + x0,3_1 + x0,4_1 + x0,5_1 + x0,6_1 + x1,2_1 + x1,3_1
   + x1,4_1 + x1,5_1 + x1,6_1 + x2,3_1 + x2,4_1 + x2,5_1 + x2,6_1 + x3,4_1
   + x3,5_1 + x3,6_1 + x4,5_1 + x4,6_1 + x5,6_1 <= 1
 R1: x0,1_4 + x0,2_4 + x0,3_4 + x0,4_4 + x0,5_4 + x0,6_4 + x1,2_4 + x1,3_4
   + x1,4_4 + x1,5_4 + x1,6_4 + x2,3_4 + x2,4_4 + x2,5_4 + x2,6_4 + x3,4_4
   + x3,5_4 + x3,6_4 + x4,5_4 + x4,6_4 + x5,6_4 <= 1
 R2: x0,1_6 + x0,2_6 + x0,3_6 + x0,4_6 + x0,5_6 + x0,6_6 + x1,2_6 + x1,3_6
   + x1,4_6 + x1,5_6 + x1,6_6 + x2,3_6 + x2,4_6 + x2,5_6 + x2,6_6 + x3,4_6
   + x3,5_6 + x3,6_6 + x4,5_6 + x4,6_6 + x5,6_6 <= 1
 R3: x0,1_7 + x0,2_7 + x0,3_7 + x0,4_7 + x0,5_7 + x0,6_7 + x1,2_7 + x1,3_7
   + x1,4_7 + x1,5_7 + x1,6_7 + x2,3_7 + x2,4_7 + x2,5_7 + x2,6_7 + x3,4_7
   + x3,5_7 + x3,6_7 + x4,5_7 + x4,6_7 + x5,6_7 <= 1
 R4: x0,1_9 + x0,2_9 + x0,3_9 + x0,4_9 + x0,5_9 + x0,6_9 + x1,2_9 + x1,3_9
   + x1,4_9 + x1,5_9 + x1,6_9 + x2,3_9 + x2,4_9 + x2,5_9 + x2,6_9 + x3,4_9
   + x3,5_9 + x3,6_9 + x4,5_9 + x4,6_9 + x5,6_9 <= 1
 R5: x0,1_10 + x0,2_10 + x0,3_10 + x0,4_10 + x0,5_10 + x0,6_10 + x1,2_10
   + x1,3_10 + x1,4_10 + x1,5_10 + x1,6_10 + x2,3_10 + x2,4_10 + x2,5_10
   + x2,6_10 + x3,4_10 + x3,5_10 + x3,6_10 + x4,5_10 + x4,6_10 + x5,6_10
   <= 1
 R6: x0,1_12 + x0,2_12 + x0,3_12 + x0,4_12 + x0,5_12 + x0,6_12 + x1,2_12
   + x1,3_12 + x1,4_12 + x1,5_12 + x1,6_12 + x2,3_12 + x2,4_12 + x2,5_12
   + x2,6_12 + x3,4_12 + x3,5_12 + x3,6_12 + x4,5_12 + x4,6_12 + x5,6_12
   <= 1
 R7: x0,1_13 + x0,2_13 + x0,3_13 + x0,4_13 + x0,5_13 + x0,6_13 + x1,2_13
   + x1,3_13 + x1,4_13 + x1,5_13 + x1,6_13 + x2,3_13 + x2,4_13 + x2,5_13
   + x2,6_13 + x3,4_13 + x3,5_13 + x3,6_13 + x4,5_13 + x4,6_13 + x5,6_13
   <= 1
 R8: x0,1_14 + x0,2_14 + x0,3_14 + x0,4_14 + x0,5_14 + x0,6_14 + x1,2_14
   + x1,3_14 + x1,4_14 + x1,5_14 + x1,6_14 + x2,3_14 + x2,4_14 + x2,5_14
   + x2,6_14 + x3,4_14 + x3,5_14 + x3,6_14 + x4,5_14 + x4,6_14 + x5,6_14
   <= 1
 R9: x0,1_16 + x0,2_16 + x0,3_16 + x0,4_16 + x0,5_16 + x0,6_16 + x1,2_16
   + x1,3_16 + x1,4_16 + x1,5_16 + x1,6_16 + x2,3_16 + x2,4_16 + x2,5_16
   + x2,6_16 + x3,4_16 + x3,5_16 + x3,6_16 + x4,5_16 + x4,6_16 + x5,6_16
   <= 1
 R10: x0,1_18 + x0,2_18 + x0,3_18 + x0,4_18 + x0,5_18 + x0,6_18 + x1,2_18
   + x1,3_18 + x1,4_18 + x1,5_18 + x1,6_18 + x2,3_18 + x2,4_18 + x2,5_18
   + x2,6_18 + x3,4_18 + x3,5_18 + x3,6_18 + x4,5_18 + x4,6_18 + x5,6_18
   <= 1
 R11: x0,1_19 + x0,2_19 + x0,3_19 + x0,4_19 + x0,5_19 + x0,6_19 + x1,2_19
   + x1,3_19 + x1,4_19 + x1,5_19 + x1,6_19 + x2,3_19 + x2,4_19 + x2,5_19
   + x2,6_19 + x3,4_19 + x3,5_19 + x3,6_19 + x4,5_19 + x4,6_19 + x5,6_19
   <= 1
 R12: x0,1_20 + x0,2_20 + x0,3_20 + x0,4_20 + x0,5_20 + x0,6_20 + x1,2_20
   + x1,3_20 + x1,4_20 + x1,5_20 + x1,6_20 + x2,3_20 + x2,4_20 + x2,5_20
   + x2,6_20 + x3,4_20 + x3,5_20 + x3,6_20 + x4,5_20 + x4,6_20 + x5,6_20
   <= 1
 R13: x0,1_28 + x0,2_28 + x0,3_28 + x0,4_28 + x0,5_28 + x0,6_28 + x1,2_28
   + x1,3_28 + x1,4_28 + x1,5_28 + x1,6_28 + x2,3_28 + x2,4_28 + x2,5_28
   + x2,6_28 + x3,4_28 + x3,5_28 + x3,6_28 + x4,5_28 + x4,6_28 + x5,6_28
   <= 1
 R14: x0,1_32 + x0,2_32 + x0,3_32 + x0,4_32 + x0,5_32 + x0,6_32 + x1,2_32
   + x1,3_32 + x1,4_32 + x1,5_32 + x1,6_32 + x2,3_32 + x2,4_32 + x2,5_32
   + x2,6_32 + x3,4_32 + x3,5_32 + x3,6_32 + x4,5_32 + x4,6_32 + x5,6_32
   <= 1
 R15: x0,1_1 + x0,1_4 + x0,1_6 + x0,1_7 + x0,1_9 + x0,1_10 + x0,1_12
   + x0,1_13 + x0,1_14 + x0,1_16 + x0,1_18 + x0,1_19 + x0,1_20 + x0,1_28
   + x0,1_32 <= 1
 R16: x0,2_1 + x0,2_4 + x0,2_6 + x0,2_7 + x0,2_9 + x0,2_10 + x0,2_12
   + x0,2_13 + x0,2_14 + x0,2_16 + x0,2_18 + x0,2_19 + x0,2_20 + x0,2_28
   + x0,2_32 <= 1
 R17: x0,3_1 + x0,3_4 + x0,3_6 + x0,3_7 + x0,3_9 + x0,3_10 + x0,3_12
   + x0,3_13 + x0,3_14 + x0,3_16 + x0,3_18 + x0,3_19 + x0,3_20 + x0,3_28
   + x0,3_32 <= 1
 R18: x0,4_1 + x0,4_4 + x0,4_6 + x0,4_7 + x0,4_9 + x0,4_10 + x0,4_12
   + x0,4_13 + x0,4_14 + x0,4_16 + x0,4_18 + x0,4_19 + x0,4_20 + x0,4_28
   + x0,4_32 <= 1
 R19: x0,5_1 + x0,5_4 + x0,5_6 + x0,5_7 + x0,5_9 + x0,5_10 + x0,5_12
   + x0,5_13 + x0,5_14 + x0,5_16 + x0,5_18 + x0,5_19 + x0,5_20 + x0,5_28
   + x0,5_32 <= 1
 R20: x0,6_1 + x0,6_4 + x0,6_6 + x0,6_7 + x0,6_9 + x0,6_10 + x0,6_12
   + x0,6_13 + x0,6_14 + x0,6_16 + x0,6_18 + x0,6_19 + x0,6_20 + x0,6_28
   + x0,6_32 <= 1
 R21: x1,2_1 + x1,2_4 + x1,2_6 + x1,2_7 + x1,2_9 + x1,2_10 + x1,2_12
   + x1,2_13 + x1,2_14 + x1,2_16 + x1,2_18 + x1,2_19 + x1,2_20 + x1,2_28
   + x1,2_32 <= 1
 R22: x1,3_1 + x1,3_4 + x1,3_6 + x1,3_7 + x1,3_9 + x1,3_10 + x1,3_12
   + x1,3_13 + x1,3_14 + x1,3_16 + x1,3_18 + x1,3_19 + x1,3_20 + x1,3_28
   + x1,3_32 <= 1
 R23: x1,4_1 + x1,4_4 + x1,4_6 + x1,4_7 + x1,4_9 + x1,4_10 + x1,4_12
   + x1,4_13 + x1,4_14 + x1,4_16 + x1,4_18 + x1,4_19 + x1,4_20 + x1,4_28
   + x1,4_32 <= 1
 R24: x1,5_1 + x1,5_4 + x1,5_6 + x1,5_7 + x1,5_9 + x1,5_10 + x1,5_12
   + x1,5_13 + x1,5_14 + x1,5_16 + x1,5_18 + x1,5_19 + x1,5_20 + x1,5_28
   + x1,5_32 <= 1
 R25: x1,6_1 + x1,6_4 + x1,6_6 + x1,6_7 + x1,6_9 + x1,6_10 + x1,6_12
   + x1,6_13 + x1,6_14 + x1,6_16 + x1,6_18 + x1,6_19 + x1,6_20 + x1,6_28
   + x1,6_32 <= 1
 R26: x2,3_1 + x2,3_4 + x2,3_6 + x2,3_7 + x2,3_9 + x2,3_10 + x2,3_12
   + x2,3_13 + x2,3_14 + x2,3_16 + x2,3_18 + x2,3_19 + x2,3_20 + x2,3_28
   + x2,3_32 <= 1
 R27: x2,4_1 + x2,4_4 + x2,4_6 + x2,4_7 + x2,4_9 + x2,4_10 + x2,4_12
   + x2,4_13 + x2,4_14 + x2,4_16 + x2,4_18 + x2,4_19 + x2,4_20 + x2,4_28
   + x2,4_32 <= 1
 R28: x2,5_1 + x2,5_4 + x2,5_6 + x2,5_7 + x2,5_9 + x2,5_10 + x2,5_12
   + x2,5_13 + x2,5_14 + x2,5_16 + x2,5_18 + x2,5_19 + x2,5_20 + x2,5_28
   + x2,5_32 <= 1
 R29: x2,6_1 + x2,6_4 + x2,6_6 + x2,6_7 + x2,6_9 + x2,6_10 + x2,6_12
   + x2,6_13 + x2,6_14 + x2,6_16 + x2,6_18 + x2,6_19 + x2,6_20 + x2,6_28
   + x2,6_32 <= 1
 R30: x3,4_1 + x3,4_4 + x3,4_6 + x3,4_7 + x3,4_9 + x3,4_10 + x3,4_12
   + x3,4_13 + x3,4_14 + x3,4_16 + x3,4_18 + x3,4_19 + x3,4_20 + x3,4_28
   + x3,4_32 <= 1
 R31: x3,5_1 + x3,5_4 + x3,5_6 + x3,5_7 + x3,5_9 + x3,5_10 + x3,5_12
   + x3,5_13 + x3,5_14 + x3,5_16 + x3,5_18 + x3,5_19 + x3,5_20 + x3,5_28
   + x3,5_32 <= 1
 R32: x3,6_1 + x3,6_4 + x3,6_6 + x3,6_7 + x3,6_9 + x3,6_10 + x3,6_12
   + x3,6_13 + x3,6_14 + x3,6_16 + x3,6_18 + x3,6_19 + x3,6_20 + x3,6_28
   + x3,6_32 <= 1
 R33: x4,5_1 + x4,5_4 + x4,5_6 + x4,5_7 + x4,5_9 + x4,5_10 + x4,5_12
   + x4,5_13 + x4,5_14 + x4,5_16 + x4,5_18 + x4,5_19 + x4,5_20 + x4,5_28
   + x4,5_32 <= 1
 R34: x4,6_1 + x4,6_4 + x4,6_6 + x4,6_7 + x4,6_9 + x4,6_10 + x4,6_12
   + x4,6_13 + x4,6_14 + x4,6_16 + x4,6_18 + x4,6_19 + x4,6_20 + x4,6_28
   + x4,6_32 <= 1
 R35: x5,6_1 + x5,6_4 + x5,6_6 + x5,6_7 + x5,6_9 + x5,6_10 + x5,6_12
   + x5,6_13 + x5,6_14 + x5,6_16 + x5,6_18 + x5,6_19 + x5,6_20 + x5,6_28
   + x5,6_32 <= 1
 R36: p0 - p1 <= -1
 R37: - x0,1_1 - p0 + p1 >= 0
 R38: 209 x0,1_1 - p0 + p1 <= 210
 R39: - 4 x0,1_4 - p0 + p1 >= 0
 R40: 209 x0,1_4 - p0 + p1 <= 213
 R41: - 6 x0,1_6 - p0 + p1 >= 0
 R42: 209 x0,1_6 - p0 + p1 <= 215
 R43: - 7 x0,1_7 - p0 + p1 >= 0
 R44: 209 x0,1_7 - p0 + p1 <= 216
 R45: - 9 x0,1_9 - p0 + p1 >= 0
 R46: 209 x0,1_9 - p0 + p1 <= 218
 R47: - 10 x0,1_10 - p0 + p1 >= 0
 R48: 209 x0,1_10 - p0 + p1 <= 219
 R49: - 12 x0,1_12 - p0 + p1 >= 0
 R50: 209 x0,1_12 - p0 + p1 <= 221
 R51: - 13 x0,1_13 - p0 + p1 >= 0
 R52: 209 x0,1_13 - p0 + p1 <= 222
 R53: - 14 x0,1_14 - p0 + p1 >= 0
 R54: 209 x0,1_14 - p0 + p1 <= 223
 R55: - 16 x0,1_16 - p0 + p1 >= 0
 R56: 209 x0,1_16 - p0 + p1 <= 225
 R57: - 18 x0,1_18 - p0 + p1 >= 0
 R58: 209 x0,1_18 - p0 + p1 <= 227
 R59: - 19 x0,1_19 - p0 + p1 >= 0
 R60: 209 x0,1_19 - p0 + p1 <= 228
 R61: - 20 x0,1_20 - p0 + p1 >= 0
 R62: 209 x0,1_20 - p0 + p1 <= 229
 R63: - 28 x0,1_28 - p0 + p1 >= 0
 R64: 209 x0,1_28 - p0 + p1 <= 237
 R65: - 32 x0,1_32 - p0 + p1 >= 0
 R66: 209 x0,1_32 - p0 + p1 <= 241
 R67: p0 - p2 <= -1
 R68: - x0,2_1 - p0 + p2 >= 0
 R69: 209 x0,2_1 - p0 + p2 <= 210
 R70: - 4 x0,2_4 - p0 + p2 >= 0
 R71: 209 x0,2_4 - p0 + p2 <= 213
 R72: - 6 x0,2_6 - p0 + p2 >= 0
 R73: 209 x0,2_6 - p0 + p2 <= 215
 R74: - 7 x0,2_7 - p0 + p2 >= 0
 R75: 209 x0,2_7 - p0 + p2 <= 216
 R76: - 9 x0,2_9 - p0 + p2 >= 0
 R77: 209 x0,2_9 - p0 + p2 <= 218
 R78: - 10 x0,2_10 - p0 + p2 >= 0
 R79: 209 x0,2_10 - p0 + p2 <= 219
 R80: - 12 x0,2_12 - p0 + p2 >= 0
 R81: 209 x0,2_12 - p0 + p2 <= 221
 R82: - 13 x0,2_13 - p0 + p2 >= 0
 R83: 209 x0,2_13 - p0 + p2 <= 222
 R84: - 14 x0,2_14 - p0 + p2 >= 0
 R85: 209 x0,2_14 - p0 + p2 <= 223
 R86: - 16 x0,2_16 - p0 + p2 >= 0
 R87: 209 x0,2_16 - p0 + p2 <= 225
 R88: - 18 x0,2_18 - p0 + p2 >= 0
 R89: 209 x0,2_18 - p0 + p2 <= 227
 R90: - 19 x0,2_19 - p0 + p2 >= 0
 R91: 209 x0,2_19 - p0 + p2 <= 228
 R92: - 20 x0,2_20 - p0 + p2 >= 0
 R93: 209 x0,2_20 - p0 + p2 <= 229
 R94: - 28 x0,2_28 - p0 + p2 >= 0
 R95: 209 x0,2_28 - p0 + p2 <= 237
 R96: - 32 x0,2_32 - p0 + p2 >= 0
 R97: 209 x0,2_32 - p0 + p2 <= 241
 R98: p0 - p3 <= -1
 R99: - x0,3_1 - p0 + p3 >= 0
 R100: 209 x0,3_1 - p0 + p3 <= 210
 R101: - 4 x0,3_4 - p0 + p3 >= 0
 R102: 209 x0,3_4 - p0 + p3 <= 213
 R103: - 6 x0,3_6 - p0 + p3 >= 0
 R104: 209 x0,3_6 - p0 + p3 <= 215
 R105: - 7 x0,3_7 - p0 + p3 >= 0
 R106: 209 x0,3_7 - p0 + p3 <= 216
 R107: - 9 x0,3_9 - p0 + p3 >= 0
 R108: 209 x0,3_9 - p0 + p3 <= 218
 R109: - 10 x0,3_10 - p0 + p3 >= 0
 R110: 209 x0,3_10 - p0 + p3 <= 219
 R111: - 12 x0,3_12 - p0 + p3 >= 0
 R112: 209 x0,3_12 - p0 + p3 <= 221
 R113: - 13 x0,3_13 - p0 + p3 >= 0
 R114: 209 x0,3_13 - p0 + p3 <= 222
 R115: - 14 x0,3_14 - p0 + p3 >= 0
 R116: 209 x0,3_14 - p0 + p3 <= 223
 R117: - 16 x0,3_16 - p0 + p3 >= 0
 R118: 209 x0,3_16 - p0 + p3 <= 225
 R119: - 18 x0,3_18 - p0 + p3 >= 0
 R120: 209 x0,3_18 - p0 + p3 <= 227
 R121: - 19 x0,3_19 - p0 + p3 >= 0
 R122: 209 x0,3_19 - p0 + p3 <= 228
 R123: - 20 x0,3_20 - p0 + p3 >= 0
 R124: 209 x0,3_20 - p0 + p3 <= 229
 R125: - 28 x0,3_28 - p0 + p3 >= 0
 R126: 209 x0,3_28 - p0 + p3 <= 237
 R127: - 32 x0,3_32 - p0 + p3 >= 0
 R128: 209 x0,3_32 - p0 + p3 <= 241
 R129: p0 - p4 <= -1
 R130: - x0,4_1 - p0 + p4 >= 0
 R131: 209 x0,4_1 - p0 + p4 <= 210
 R132: - 4 x0,4_4 - p0 + p4 >= 0
 R133: 209 x0,4_4 - p0 + p4 <= 213
 R134: - 6 x0,4_6 - p0 + p4 >= 0
 R135: 209 x0,4_6 - p0 + p4 <= 215
 R136: - 7 x0,4_7 - p0 + p4 >= 0
 R137: 209 x0,4_7 - p0 + p4 <= 216
 R138: - 9 x0,4_9 - p0 + p4 >= 0
 R139: 209 x0,4_9 - p0 + p4 <= 218
 R140: - 10 x0,4_10 - p0 + p4 >= 0
 R141: 209 x0,4_10 - p0 + p4 <= 219
 R142: - 12 x0,4_12 - p0 + p4 >= 0
 R143: 209 x0,4_12 - p0 + p4 <= 221
 R144: - 13 x0,4_13 - p0 + p4 >= 0
 R145: 209 x0,4_13 - p0 + p4 <= 222
 R146: - 14 x0,4_14 - p0 + p4 >= 0
 R147: 209 x0,4_14 - p0 + p4 <= 223
 R148: - 16 x0,4_16 - p0 + p4 >= 0
 R149: 209 x0,4_16 - p0 + p4 <= 225
 R150: - 18 x0,4_18 - p0 + p4 >= 0
 R151: 209 x0,4_18 - p0 + p4 <= 227
 R152: - 19 x0,4_19 - p0 + p4 >= 0
 R153: 209 x0,4_19 - p0 + p4 <= 228
 R154: - 20 x0,4_20 - p0 + p4 >= 0
 R155: 209 x0,4_20 - p0 + p4 <= 229
 R156: - 28 x0,4_28 - p0 + p4 >= 0
 R157: 209 x0,4_28 - p0 + p4 <= 237
 R158: - 32 x0,4_32 - p0 + p4 >= 0
 R159: 209 x0,4_32 - p0 + p4 <= 241
 R160: p0 - p5 <= -1
 R161: - x0,5_1 - p0 + p5 >= 0
 R162: 209 x0,5_1 - p0 + p5 <= 210
 R163: - 4 x0,5_4 - p0 + p5 >= 0
 R164: 209 x0,5_4 - p0 + p5 <= 213
 R165: - 6 x0,5_6 - p0 + p5 >= 0
 R166: 209 x0,5_6 - p0 + p5 <= 215
 R167: - 7 x0,5_7 - p0 + p5 >= 0
 R168: 209 x0,5_7 - p0 + p5 <= 216
 R169: - 9 x0,5_9 - p0 + p5 >= 0
 R170: 209 x0,5_9 - p0 + p5 <= 218
 R171: - 10 x0,5_10 - p0 + p5 >= 0
 R172: 209 x0,5_10 - p0 + p5 <= 219
 R173: - 12 x0,5_12 - p0 + p5 >= 0
 R174: 209 x0,5_12 - p0 + p5 <= 221
 R175: - 13 x0,5_13 - p0 + p5 >= 0
 R176: 209 x0,5_13 - p0 + p5 <= 222
 R177: - 14 x0,5_14 - p0 + p5 >= 0
 R178: 209 x0,5_14 - p0 + p5 <= 223
 R179: - 16 x0,5_16 - p0 + p5 >= 0
 R180: 209 x0,5_16 - p0 + p5 <= 225
 R181: - 18 x0,5_18 - p0 + p5 >= 0
 R182: 209 x0,5_18 - p0 + p5 <= 227
 R183: - 19 x0,5_19 - p0 + p5 >= 0
 R184: 209 x0,5_19 - p0 + p5 <= 228
 R185: - 20 x0,5_20 - p0 + p5 >= 0
 R186: 209 x0,5_20 - p0 + p5 <= 229
 R187: - 28 x0,5_28 - p0 + p5 >= 0
 R188: 209 x0,5_28 - p0 + p5 <= 237
 R189: - 32 x0,5_32 - p0 + p5 >= 0
 R190: 209 x0,5_32 - p0 + p5 <= 241
 R191: p0 - p6 <= -1
 R192: - x0,6_1 - p0 + p6 >= 0
 R193: 209 x0,6_1 - p0 + p6 <= 210
 R194: - 4 x0,6_4 - p0 + p6 >= 0
 R195: 209 x0,6_4 - p0 + p6 <= 213
 R196: - 6 x0,6_6 - p0 + p6 >= 0
 R197: 209 x0,6_6 - p0 + p6 <= 215
 R198: - 7 x0,6_7 - p0 + p6 >= 0
 R199: 209 x0,6_7 - p0 + p6 <= 216
 R200: - 9 x0,6_9 - p0 + p6 >= 0
 R201: 209 x0,6_9 - p0 + p6 <= 218
 R202: - 10 x0,6_10 - p0 + p6 >= 0
 R203: 209 x0,6_10 - p0 + p6 <= 219
 R204: - 12 x0,6_12 - p0 + p6 >= 0
 R205: 209 x0,6_12 - p0 + p6 <= 221
 R206: - 13 x0,6_13 - p0 + p6 >= 0
 R207: 209 x0,6_13 - p0 + p6 <= 222
 R208: - 14 x0,6_14 - p0 + p6 >= 0
 R209: 209 x0,6_14 - p0 + p6 <= 223
 R210: - 16 x0,6_16 - p0 + p6 >= 0
 R211: 209 x0,6_16 - p0 + p6 <= 225
 R212: - 18 x0,6_18 - p0 + p6 >= 0
 R213: 209 x0,6_18 - p0 + p6 <= 227
 R214: - 19 x0,6_19 - p0 + p6 >= 0
 R215: 209 x0,6_19 - p0 + p6 <= 228
 R216: - 20 x0,6_20 - p0 + p6 >= 0
 R217: 209 x0,6_20 - p0 + p6 <= 229
 R218: - 28 x0,6_28 - p0 + p6 >= 0
 R219: 209 x0,6_28 - p0 + p6 <= 237
 R220: - 32 x0,6_32 - p0 + p6 >= 0
 R221: 209 x0,6_32 - p0 + p6 <= 241
 R222: p1 - p2 <= -1
 R223: - x1,2_1 - p1 + p2 >= 0
 R224: 209 x1,2_1 - p1 + p2 <= 210
 R225: - 4 x1,2_4 - p1 + p2 >= 0
 R226: 209 x1,2_4 - p1 + p2 <= 213
 R227: - 6 x1,2_6 - p1 + p2 >= 0
 R228: 209 x1,2_6 - p1 + p2 <= 215
 R229: - 7 x1,2_7 - p1 + p2 >= 0
 R230: 209 x1,2_7 - p1 + p2 <= 216
 R231: - 9 x1,2_9 - p1 + p2 >= 0
 R232: 209 x1,2_9 - p1 + p2 <= 218
 R233: - 10 x1,2_10 - p1 + p2 >= 0
 R234: 209 x1,2_10 - p1 + p2 <= 219
 R235: - 12 x1,2_12 - p1 + p2 >= 0
 R236: 209 x1,2_12 - p1 + p2 <= 221
 R237: - 13 x1,2_13 - p1 + p2 >= 0
 R238: 209 x1,2_13 - p1 + p2 <= 222
 R239: - 14 x1,2_14 - p1 + p2 >= 0
 R240: 209 x1,2_14 - p1 + p2 <= 223
 R241: - 16 x1,2_16 - p1 + p2 >= 0
 R242: 209 x1,2_16 - p1 + p2 <= 225
 R243: - 18 x1,2_18 - p1 + p2 >= 0
 R244: 209 x1,2_18 - p1 + p2 <= 227
 R245: - 19 x1,2_19 - p1 + p2 >= 0
 R246: 209 x1,2_19 - p1 + p2 <= 228
 R247: - 20 x1,2_20 - p1 + p2 >= 0
 R248: 209 x1,2_20 - p1 + p2 <= 229
 R249: - 28 x1,2_28 - p1 + p2 >= 0
 R250: 209 x1,2_28 - p1 + p2 <= 237
 R251: - 32 x1,2_32 - p1 + p2 >= 0
 R252: 209 x1,2_32 - p1 + p2 <= 241
 R253: p1 - p3 <= -1
 R254: - x1,3_1 - p1 + p3 >= 0
 R255: 209 x1,3_1 - p1 + p3 <= 210
 R256: - 4 x1,3_4 - p1 + p3 >= 0
 R257: 209 x1,3_4 - p1 + p3 <= 213
 R258: - 6 x1,3_6 - p1 + p3 >= 0
 R259: 209 x1,3_6 - p1 + p3 <= 215
 R260: - 7 x1,3_7 - p1 + p3 >= 0
 R261: 209 x1,3_7 - p1 + p3 <= 216
 R262: - 9 x1,3_9 - p1 + p3 >= 0
 R263: 209 x1,3_9 - p1 + p3 <= 218
 R264: - 10 x1,3_10 - p1 + p3 >= 0
 R265: 209 x1,3_10 - p1 + p3 <= 219
 R266: - 12 x1,3_12 - p1 + p3 >= 0
 R267: 209 x1,3_12 - p1 + p3 <= 221
 R268: - 13 x1,3_13 - p1 + p3 >= 0
 R269: 209 x1,3_13 - p1 + p3 <= 222
 R270: - 14 x1,3_14 - p1 + p3 >= 0
 R271: 209 x1,3_14 - p1 + p3 <= 223
 R272: - 16 x1,3_16 - p1 + p3 >= 0
 R273: 209 x1,3_16 - p1 + p3 <= 225
 R274: - 18 x1,3_18 - p1 + p3 >= 0
 R275: 209 x1,3_18 - p1 + p3 <= 227
 R276: - 19 x1,3_19 - p1 + p3 >= 0
 R277: 209 x1,3_19 - p1 + p3 <= 228
 R278: - 20 x1,3_20 - p1 + p3 >= 0
 R279: 209 x1,3_20 - p1 + p3 <= 229
 R280: - 28 x1,3_28 - p1 + p3 >= 0
 R281: 209 x1,3_28 - p1 + p3 <= 237
 R282: - 32 x1,3_32 - p1 + p3 >= 0
 R283: 209 x1,3_32 - p1 + p3 <= 241
 R284: p1 - p4 <= -1
 R285: - x1,4_1 - p1 + p4 >= 0
 R286: 209 x1,4_1 - p1 + p4 <= 210
 R287: - 4 x1,4_4 - p1 + p4 >= 0
 R288: 209 x1,4_4 - p1 + p4 <= 213
 R289: - 6 x1,4_6 - p1 + p4 >= 0
 R290: 209 x1,4_6 - p1 + p4 <= 215
 R291: - 7 x1,4_7 - p1 + p4 >= 0
 R292: 209 x1,4_7 - p1 + p4 <= 216
 R293: - 9 x1,4_9 - p1 + p4 >= 0
 R294: 209 x1,4_9 - p1 + p4 <= 218
 R295: - 10 x1,4_10 - p1 + p4 >= 0
 R296: 209 x1,4_10 - p1 + p4 <= 219
 R297: - 12 x1,4_12 - p1 + p4 >= 0
 R298: 209 x1,4_12 - p1 + p4 <= 221
 R299: - 13 x1,4_13 - p1 + p4 >= 0
 R300: 209 x1,4_13 - p1 + p4 <= 222
 R301: - 14 x1,4_14 - p1 + p4 >= 0
 R302: 209 x1,4_14 - p1 + p4 <= 223
 R303: - 16 x1,4_16 - p1 + p4 >= 0
 R304: 209 x1,4_16 - p1 + p4 <= 225
 R305: - 18 x1,4_18 - p1 + p4 >= 0
 R306: 209 x1,4_18 - p1 + p4 <= 227
 R307: - 19 x1,4_19 - p1 + p4 >= 0
 R308: 209 x1,4_19 - p1 + p4 <= 228
 R309: - 20 x1,4_20 - p1 + p4 >= 0
 R310: 209 x1,4_20 - p1 + p4 <= 229
 R311: - 28 x1,4_28 - p1 + p4 >= 0
 R312: 209 x1,4_28 - p1 + p4 <= 237
 R313: - 32 x1,4_32 - p1 + p4 >= 0
 R314: 209 x1,4_32 - p1 + p4 <= 241
 R315: p1 - p5 <= -1
 R316: - x1,5_1 - p1 + p5 >= 0
 R317: 209 x1,5_1 - p1 + p5 <= 210
 R318: - 4 x1,5_4 - p1 + p5 >= 0
 R319: 209 x1,5_4 - p1 + p5 <= 213
 R320: - 6 x1,5_6 - p1 + p5 >= 0
 R321: 209 x1,5_6 - p1 + p5 <= 215
 R322: - 7 x1,5_7 - p1 + p5 >= 0
 R323: 209 x1,5_7 - p1 + p5 <= 216
 R324: - 9 x1,5_9 - p1 + p5 >= 0
 R325: 209 x1,5_9 - p1 + p5 <= 218
 R326: - 10 x1,5_10 - p1 + p5 >= 0
 R327: 209 x1,5_10 - p1 + p5 <= 219
 R328: - 12 x1,5_12 - p1 + p5 >= 0
 R329: 209 x1,5_12 - p1 + p5 <= 221
 R330: - 13 x1,5_13 - p1 + p5 >= 0
 R331: 209 x1,5_13 - p1 + p5 <= 222
 R332: - 14 x1,5_14 - p1 + p5 >= 0
 R333: 209 x1,5_14 - p1 + p5 <= 223
 R334: - 16 x1,5_16 - p1 + p5 >= 0
 R335: 209 x1,5_16 - p1 + p5 <= 225
 R336: - 18 x1,5_18 - p1 + p5 >= 0
 R337: 209 x1,5_18 - p1 + p5 <= 227
 R338: - 19 x1,5_19 - p1 + p5 >= 0
 R339: 209 x1,5_19 - p1 + p5 <= 228
 R340: - 20 x1,5_20 - p1 + p5 >= 0
 R341: 209 x1,5_20 - p1 + p5 <= 229
 R342: - 28 x1,5_28 - p1 + p5 >= 0
 R343: 209 x1,5_28 - p1 + p5 <= 237
 R344: - 32 x1,5_32 - p1 + p5 >= 0
 R345: 209 x1,5_32 - p1 + p5 <= 241
 R346: p1 - p6 <= -1
 R347: - x1,6_1 - p1 + p6 >= 0
 R348: 209 x1,6_1 - p1 + p6 <= 210
 R349: - 4 x1,6_4 - p1 + p6 >= 0
 R350: 209 x1,6_4 - p1 + p6 <= 213
 R351: - 6 x1,6_6 - p1 + p6 >= 0
 R352: 209 x1,6_6 - p1 + p6 <= 215
 R353: - 7 x1,6_7 - p1 + p6 >= 0
 R354: 209 x1,6_7 - p1 + p6 <= 216
 R355: - 9 x1,6_9 - p1 + p6 >= 0
 R356: 209 x1,6_9 - p1 + p6 <= 218
 R357: - 10 x1,6_10 - p1 + p6 >= 0
 R358: 209 x1,6_10 - p1 + p6 <= 219
 R359: - 12 x1,6_12 - p1 + p6 >= 0
 R360: 209 x1,6_12 - p1 + p6 <= 221
 R361: - 13 x1,6_13 - p1 + p6 >= 0
 R362: 209 x1,6_13 - p1 + p6 <= 222
 R363: - 14 x1,6_14 - p1 + p6 >= 0
 R364: 209 x1,6_14 - p1 + p6 <= 223
 R365: - 16 x1,6_16 - p1 + p6 >= 0
 R366: 209 x1,6_16 - p1 + p6 <= 225
 R367: - 18 x1,6_18 - p1 + p6 >= 0
 R368: 209 x1,6_18 - p1 + p6 <= 227
 R369: - 19 x1,6_19 - p1 + p6 >= 0
 R370: 209 x1,6_19 - p1 + p6 <= 228
 R371: - 20 x1,6_20 - p1 + p6 >= 0
 R372: 209 x1,6_20 - p1 + p6 <= 229
 R373: - 28 x1,6_28 - p1 + p6 >= 0
 R374: 209 x1,6_28 - p1 + p6 <= 237
 R375: - 32 x1,6_32 - p1 + p6 >= 0
 R376: 209 x1,6_32 - p1 + p6 <= 241
 R377: p2 - p3 <= -1
 R378: - x2,3_1 - p2 + p3 >= 0
 R379: 209 x2,3_1 - p2 + p3 <= 210
 R380: - 4 x2,3_4 - p2 + p3 >= 0
 R381: 209 x2,3_4 - p2 + p3 <= 213
 R382: - 6 x2,3_6 - p2 + p3 >= 0
 R383: 209 x2,3_6 - p2 + p3 <= 215
 R384: - 7 x2,3_7 - p2 + p3 >= 0
 R385: 209 x2,3_7 - p2 + p3 <= 216
 R386: - 9 x2,3_9 - p2 + p3 >= 0
 R387: 209 x2,3_9 - p2 + p3 <= 218
 R388: - 10 x2,3_10 - p2 + p3 >= 0
 R389: 209 x2,3_10 - p2 + p3 <= 219
 R390: - 12 x2,3_12 - p2 + p3 >= 0
 R391: 209 x2,3_12 - p2 + p3 <= 221
 R392: - 13 x2,3_13 - p2 + p3 >= 0
 R393: 209 x2,3_13 - p2 + p3 <= 222
 R394: - 14 x2,3_14 - p2 + p3 >= 0
 R395: 209 x2,3_14 - p2 + p3 <= 223
 R396: - 16 x2,3_16 - p2 + p3 >= 0
 R397: 209 x2,3_16 - p2 + p3 <= 225
 R398: - 18 x2,3_18 - p2 + p3 >= 0
 R399: 209 x2,3_18 - p2 + p3 <= 227
 R400: - 19 x2,3_19 - p2 + p3 >= 0
 R401: 209 x2,3_19 - p2 + p3 <= 228
 R402: - 20 x2,3_20 - p2 + p3 >= 0
 R403: 209 x2,3_20 - p2 + p3 <= 229
 R404: - 28 x2,3_28 - p2 + p3 >= 0
 R405: 209 x2,3_28 - p2 + p3 <= 237
 R406: - 32 x2,3_32 - p2 + p3 >= 0
 R407: 209 x2,3_32 - p2 + p3 <= 241
 R408: p2 - p4 <= -1
 R409: - x2,4_1 - p2 + p4 >= 0
 R410: 209 x2,4_1 - p2 + p4 <= 210
 R411: - 4 x2,4_4 - p2 + p4 >= 0
 R412: 209 x2,4_4 - p2 + p4 <= 213
 R413: - 6 x2,4_6 - p2 + p4 >= 0
 R414: 209 x2,4_6 - p2 + p4 <= 215
 R415: - 7 x2,4_7 - p2 + p4 >= 0
 R416: 209 x2,4_7 - p2 + p4 <= 216
 R417: - 9 x2,4_9 - p2 + p4 >= 0
 R418: 209 x2,4_9 - p2 + p4 <= 218
 R419: - 10 x2,4_10 - p2 + p4 >= 0
 R420: 209 x2,4_10 - p2 + p4 <= 219
 R421: - 12 x2,4_12 - p2 + p4 >= 0
 R422: 209 x2,4_12 - p2 + p4 <= 221
 R423: - 13 x2,4_13 - p2 + p4 >= 0
 R424: 209 x2,4_13 - p2 + p4 <= 222
 R425: - 14 x2,4_14 - p2 + p4 >= 0
 R426: 209 x2,4_14 - p2 + p4 <= 223
 R427: - 16 x2,4_16 - p2 + p4 >= 0
 R428: 209 x2,4_16 - p2 + p4 <= 225
 R429: - 18 x2,4_18 - p2 + p4 >= 0
 R430: 209 x2,4_18 - p2 + p4 <= 227
 R431: - 19 x2,4_19 - p2 + p4 >= 0
 R432: 209 x2,4_19 - p2 + p4 <= 228
 R433: - 20 x2,4_20 - p2 + p4 >= 0
 R434: 209 x2,4_20 - p2 + p4 <= 229
 R435: - 28 x2,4_28 - p2 + p4 >= 0
 R436: 209 x2,4_28 - p2 + p4 <= 237
 R437: - 32 x2,4_32 - p2 + p4 >= 0
 R438: 209 x2,4_32 - p2 + p4 <= 241
 R439: p2 - p5 <= -1
 R440: - x2,5_1 - p2 + p5 >= 0
 R441: 209 x2,5_1 - p2 + p5 <= 210
 R442: - 4 x2,5_4 - p2 + p5 >= 0
 R443: 209 x2,5_4 - p2 + p5 <= 213
 R444: - 6 x2,5_6 - p2 + p5 >= 0
 R445: 209 x2,5_6 - p2 + p5 <= 215
 R446: - 7 x2,5_7 - p2 + p5 >= 0
 R447: 209 x2,5_7 - p2 + p5 <= 216
 R448: - 9 x2,5_9 - p2 + p5 >= 0
 R449: 209 x2,5_9 - p2 + p5 <= 218
 R450: - 10 x2,5_10 - p2 + p5 >= 0
 R451: 209 x2,5_10 - p2 + p5 <= 219
 R452: - 12 x2,5_12 - p2 + p5 >= 0
 R453: 209 x2,5_12 - p2 + p5 <= 221
 R454: - 13 x2,5_13 - p2 + p5 >= 0
 R455: 209 x2,5_13 - p2 + p5 <= 222
 R456: - 14 x2,5_14 - p2 + p5 >= 0
 R457: 209 x2,5_14 - p2 + p5 <= 223
 R458: - 16 x2,5_16 - p2 + p5 >= 0
 R459: 209 x2,5_16 - p2 + p5 <= 225
 R460: - 18 x2,5_18 - p2 + p5 >= 0
 R461: 209 x2,5_18 - p2 + p5 <= 227
 R462: - 19 x2,5_19 - p2 + p5 >= 0
 R463: 209 x2,5_19 - p2 + p5 <= 228
 R464: - 20 x2,5_20 - p2 + p5 >= 0
 R465: 209 x2,5_20 - p2 + p5 <= 229
 R466: - 28 x2,5_28 - p2 + p5 >= 0
 R467: 209 x2,5_28 - p2 + p5 <= 237
 R468: - 32 x2,5_32 - p2 + p5 >= 0
 R469: 209 x2,5_32 - p2 + p5 <= 241
 R470: p2 - p6 <= -1
 R471: - x2,6_1 - p2 + p6 >= 0
 R472: 209 x2,6_1 - p2 + p6 <= 210
 R473: - 4 x2,6_4 - p2 + p6 >= 0
 R474: 209 x2,6_4 - p2 + p6 <= 213
 R475: - 6 x2,6_6 - p2 + p6 >= 0
 R476: 209 x2,6_6 - p2 + p6 <= 215
 R477: - 7 x2,6_7 - p2 + p6 >= 0
 R478: 209 x2,6_7 - p2 + p6 <= 216
 R479: - 9 x2,6_9 - p2 + p6 >= 0
 R480: 209 x2,6_9 - p2 + p6 <= 218
 R481: - 10 x2,6_10 - p2 + p6 >= 0
 R482: 209 x2,6_10 - p2 + p6 <= 219
 R483: - 12 x2,6_12 - p2 + p6 >= 0
 R484: 209 x2,6_12 - p2 + p6 <= 221
 R485: - 13 x2,6_13 - p2 + p6 >= 0
 R486: 209 x2,6_13 - p2 + p6 <= 222
 R487: - 14 x2,6_14 - p2 + p6 >= 0
 R488: 209 x2,6_14 - p2 + p6 <= 223
 R489: - 16 x2,6_16 - p2 + p6 >= 0
 R490: 209 x2,6_16 - p2 + p6 <= 225
 R491: - 18 x2,6_18 - p2 + p6 >= 0
 R492: 209 x2,6_18 - p2 + p6 <= 227
 R493: - 19 x2,6_19 - p2 + p6 >= 0
 R494: 209 x2,6_19 - p2 + p6 <= 228
 R495: - 20 x2,6_20 - p2 + p6 >= 0
 R496: 209 x2,6_20 - p2 + p6 <= 229
 R497: - 28 x2,6_28 - p2 + p6 >= 0
 R498: 209 x2,6_28 - p2 + p6 <= 237
 R499: - 32 x2,6_32 - p2 + p6 >= 0
 R500: 209 x2,6_32 - p2 + p6 <= 241
 R501: p3 - p4 <= -1
 R502: - x3,4_1 - p3 + p4 >= 0
 R503: 209 x3,4_1 - p3 + p4 <= 210
 R504: - 4 x3,4_4 - p3 + p4 >= 0
 R505: 209 x3,4_4 - p3 + p4 <= 213
 R506: - 6 x3,4_6 - p3 + p4 >= 0
 R507: 209 x3,4_6 - p3 + p4 <= 215
 R508: - 7 x3,4_7 - p3 + p4 >= 0
 R509: 209 x3,4_7 - p3 + p4 <= 216
 R510: - 9 x3,4_9 - p3 + p4 >= 0
 R511: 209 x3,4_9 - p3 + p4 <= 218
 R512: - 10 x3,4_10 - p3 + p4 >= 0
 R513: 209 x3,4_10 - p3 + p4 <= 219
 R514: - 12 x3,4_12 - p3 + p4 >= 0
 R515: 209 x3,4_12 - p3 + p4 <= 221
 R516: - 13 x3,4_13 - p3 + p4 >= 0
 R517: 209 x3,4_13 - p3 + p4 <= 222
 R518: - 14 x3,4_14 - p3 + p4 >= 0
 R519: 209 x3,4_14 - p3 + p4 <= 223
 R520: - 16 x3,4_16 - p3 + p4 >= 0
 R521: 209 x3,4_16 - p3 + p4 <= 225
 R522: - 18 x3,4_18 - p3 + p4 >= 0
 R523: 209 x3,4_18 - p3 + p4 <= 227
 R524: - 19 x3,4_19 - p3 + p4 >= 0
 R525: 209 x3,4_19 - p3 + p4 <= 228
 R526: - 20 x3,4_20 - p3 + p4 >= 0
 R527: 209 x3,4_20 - p3 + p4 <= 229
 R528: - 28 x3,4_28 - p3 + p4 >= 0
 R529: 209 x3,4_28 - p3 + p4 <= 237
 R530: - 32 x3,4_32 - p3 + p4 >= 0
 R531: 209 x3,4_32 - p3 + p4 <= 241
 R532: p3 - p5 <= -1
 R533: - x3,5_1 - p3 + p5 >= 0
 R534: 209 x3,5_1 - p3 + p5 <= 210
 R535: - 4 x3,5_4 - p3 + p5 >= 0
 R536: 209 x3,5_4 - p3 + p5 <= 213
 R537: - 6 x3,5_6 - p3 + p5 >= 0
 R538: 209 x3,5_6 - p3 + p5 <= 215
 R539: - 7 x3,5_7 - p3 + p5 >= 0
 R540: 209 x3,5_7 - p3 + p5 <= 216
 R541: - 9 x3,5_9 - p3 + p5 >= 0
 R542: 209 x3,5_9 - p3 + p5 <= 218
 R543: - 10 x3,5_10 - p3 + p5 >= 0
 R544: 209 x3,5_10 - p3 + p5 <= 219
 R545: - 12 x3,5_12 - p3 + p5 >= 0
 R546: 209 x3,5_12 - p3 + p5 <= 221
 R547: - 13 x3,5_13 - p3 + p5 >= 0
 R548: 209 x3,5_13 - p3 + p5 <= 222
 R549: - 14 x3,5_14 - p3 + p5 >= 0
 R550: 209 x3,5_14 - p3 + p5 <= 223
 R551: - 16 x3,5_16 - p3 + p5 >= 0
 R552: 209 x3,5_16 - p3 + p5 <= 225
 R553: - 18 x3,5_18 - p3 + p5 >= 0
 R554: 209 x3,5_18 - p3 + p5 <= 227
 R555: - 19 x3,5_19 - p3 + p5 >= 0
 R556: 209 x3,5_19 - p3 + p5 <= 228
 R557: - 20 x3,5_20 - p3 + p5 >= 0
 R558: 209 x3,5_20 - p3 + p5 <= 229
 R559: - 28 x3,5_28 - p3 + p5 >= 0
 R560: 209 x3,5_28 - p3 + p5 <= 237
 R561: - 32 x3,5_32 - p3 + p5 >= 0
 R562: 209 x3,5_32 - p3 + p5 <= 241
 R563: p3 - p6 <= -1
 R564: - x3,6_1 - p3 + p6 >= 0
 R565: 209 x3,6_1 - p3 + p6 <= 210
 R566: - 4 x3,6_4 - p3 + p6 >= 0
 R567: 209 x3,6_4 - p3 + p6 <= 213
 R568: - 6 x3,6_6 - p3 + p6 >= 0
 R569: 209 x3,6_6 - p3 + p6 <= 215
 R570: - 7 x3,6_7 - p3 + p6 >= 0
 R571: 209 x3,6_7 - p3 + p6 <= 216
 R572: - 9 x3,6_9 - p3 + p6 >= 0
 R573: 209 x3,6_9 - p3 + p6 <= 218
 R574: - 10 x3,6_10 - p3 + p6 >= 0
 R575: 209 x3,6_10 - p3 + p6 <= 219
 R576: - 12 x3,6_12 - p3 + p6 >= 0
 R577: 209 x3,6_12 - p3 + p6 <= 221
 R578: - 13 x3,6_13 - p3 + p6 >= 0
 R579: 209 x3,6_13 - p3 + p6 <= 222
 R580: - 14 x3,6_14 - p3 + p6 >= 0
 R581: 209 x3,6_14 - p3 + p6 <= 223
 R582: - 16 x3,6_16 - p3 + p6 >= 0
 R583: 209 x3,6_16 - p3 + p6 <= 225
 R584: - 18 x3,6_18 - p3 + p6 >= 0
 R585: 209 x3,6_18 - p3 + p6 <= 227
 R586: - 19 x3,6_19 - p3 + p6 >= 0
 R587: 209 x3,6_19 - p3 + p6 <= 228
 R588: - 20 x3,6_20 - p3 + p6 >= 0
 R589: 209 x3,6_20 - p3 + p6 <= 229
 R590: - 28 x3,6_28 - p3 + p6 >= 0
 R591: 209 x3,6_28 - p3 + p6 <= 237
 R592: - 32 x3,6_32 - p3 + p6 >= 0
 R593: 209 x3,6_32 - p3 + p6 <= 241
 R594: p4 - p5 <= -1
 R595: - x4,5_1 - p4 + p5 >= 0
 R596: 209 x4,5_1 - p4 + p5 <= 210
 R597: - 4 x4,5_4 - p4 + p5 >= 0
 R598: 209 x4,5_4 - p4 + p5 <= 213
 R599: - 6 x4,5_6 - p4 + p5 >= 0
 R600: 209 x4,5_6 - p4 + p5 <= 215
 R601: - 7 x4,5_7 - p4 + p5 >= 0
 R602: 209 x4,5_7 - p4 + p5 <= 216
 R603: - 9 x4,5_9 - p4 + p5 >= 0
 R604: 209 x4,5_9 - p4 + p5 <= 218
 R605: - 10 x4,5_10 - p4 + p5 >= 0
 R606: 209 x4,5_10 - p4 + p5 <= 219
 R607: - 12 x4,5_12 - p4 + p5 >= 0
 R608: 209 x4,5_12 - p4 + p5 <= 221
 R609: - 13 x4,5_13 - p4 + p5 >= 0
 R610: 209 x4,5_13 - p4 + p5 <= 222
 R611: - 14 x4,5_14 - p4 + p5 >= 0
 R612: 209 x4,5_14 - p4 + p5 <= 223
 R613: - 16 x4,5_16 - p4 + p5 >= 0
 R614: 209 x4,5_16 - p4 + p5 <= 225
 R615: - 18 x4,5_18 - p4 + p5 >= 0
 R616: 209 x4,5_18 - p4 + p5 <= 227
 R617: - 19 x4,5_19 - p4 + p5 >= 0
 R618: 209 x4,5_19 - p4 + p5 <= 228
 R619: - 20 x4,5_20 - p4 + p5 >= 0
 R620: 209 x4,5_20 - p4 + p5 <= 229
 R621: - 28 x4,5_28 - p4 + p5 >= 0
 R622: 209 x4,5_28 - p4 + p5 <= 237
 R623: - 32 x4,5_32 - p4 + p5 >= 0
 R624: 209 x4,5_32 - p4 + p5 <= 241
 R625: p4 - p6 <= -1
 R626: - x4,6_1 - p4 + p6 >= 0
 R627: 209 x4,6_1 - p4 + p6 <= 210
 R628: - 4 x4,6_4 - p4 + p6 >= 0
 R629: 209 x4,6_4 - p4 + p6 <= 213
 R630: - 6 x4,6_6 - p4 + p6 >= 0
 R631: 209 x4,6_6 - p4 + p6 <= 215
 R632: - 7 x4,6_7 - p4 + p6 >= 0
 R633: 209 x4,6_7 - p4 + p6 <= 216
 R634: - 9 x4,6_9 - p4 + p6 >= 0
 R635: 209 x4,6_9 - p4 + p6 <= 218
 R636: - 10 x4,6_10 - p4 + p6 >= 0
 R637: 209 x4,6_10 - p4 + p6 <= 219
 R638: - 12 x4,6_12 - p4 + p6 >= 0
 R639: 209 x4,6_12 - p4 + p6 <= 221
 R640: - 13 x4,6_13 - p4 + p6 >= 0
 R641: 209 x4,6_13 - p4 + p6 <= 222
 R642: - 14 x4,6_14 - p4 + p6 >= 0
 R643: 209 x4,6_14 - p4 + p6 <= 223
 R644: - 16 x4,6_16 - p4 + p6 >= 0
 R645: 209 x4,6_16 - p4 + p6 <= 225
 R646: - 18 x4,6_18 - p4 + p6 >= 0
 R647: 209 x4,6_18 - p4 + p6 <= 227
 R648: - 19 x4,6_19 - p4 + p6 >= 0
 R649: 209 x4,6_19 - p4 + p6 <= 228
 R650: - 20 x4,6_20 - p4 + p6 >= 0
 R651: 209 x4,6_20 - p4 + p6 <= 229
 R652: - 28 x4,6_28 - p4 + p6 >= 0
 R653: 209 x4,6_28 - p4 + p6 <= 237
 R654: - 32 x4,6_32 - p4 + p6 >= 0
 R655: 209 x4,6_32 - p4 + p6 <= 241
 R656: p5 - p6 <= -1
 R657: - x5,6_1 - p5 + p6 >= 0
 R658: 209 x5,6_1 - p5 + p6 <= 210
 R659: - 4 x5,6_4 - p5 + p6 >= 0
 R660: 209 x5,6_4 - p5 + p6 <= 213
 R661: - 6 x5,6_6 - p5 + p6 >= 0
 R662: 209 x5,6_6 - p5 + p6 <= 215
 R663: - 7 x5,6_7 - p5 + p6 >= 0
 R664: 209 x5,6_7 - p5 + p6 <= 216
 R665: - 9 x5,6_9 - p5 + p6 >= 0
 R666: 209 x5,6_9 - p5 + p6 <= 218
 R667: - 10 x5,6_10 - p5 + p6 >= 0
 R668: 209 x5,6_10 - p5 + p6 <= 219
 R669: - 12 x5,6_12 - p5 + p6 >= 0
 R670: 209 x5,6_12 - p5 + p6 <= 221
 R671: - 13 x5,6_13 - p5 + p6 >= 0
 R672: 209 x5,6_13 - p5 + p6 <= 222
 R673: - 14 x5,6_14 - p5 + p6 >= 0
 R674: 209 x5,6_14 - p5 + p6 <= 223
 R675: - 16 x5,6_16 - p5 + p6 >= 0
 R676: 209 x5,6_16 - p5 + p6 <= 225
 R677: - 18 x5,6_18 - p5 + p6 >= 0
 R678: 209 x5,6_18 - p5 + p6 <= 227
 R679: - 19 x5,6_19 - p5 + p6 >= 0
 R680: 209 x5,6_19 - p5 + p6 <= 228
 R681: - 20 x5,6_20 - p5 + p6 >= 0
 R682: 209 x5,6_20 - p5 + p6 <= 229
 R683: - 28 x5,6_28 - p5 + p6 >= 0
 R684: 209 x5,6_28 - p5 + p6 <= 237
 R685: - 32 x5,6_32 - p5 + p6 >= 0
 R686: 209 x5,6_32 - p5 + p6 <= 241
Bounds
Binaries
 x0,1_1 x0,1_4 x0,1_6 x0,1_7 x0,1_9 x0,1_10 x0,1_12 x0,1_13 x0,1_14 x0,1_16
 x0,1_18 x0,1_19 x0,1_20 x0,1_28 x0,1_32 x0,2_1 x0,2_4 x0,2_6 x0,2_7 x0,2_9
 x0,2_10 x0,2_12 x0,2_13 x0,2_14 x0,2_16 x0,2_18 x0,2_19 x0,2_20 x0,2_28
 x0,2_32 x0,3_1 x0,3_4 x0,3_6 x0,3_7 x0,3_9 x0,3_10 x0,3_12 x0,3_13 x0,3_14
 x0,3_16 x0,3_18 x0,3_19 x0,3_20 x0,3_28 x0,3_32 x0,4_1 x0,4_4 x0,4_6
 x0,4_7 x0,4_9 x0,4_10 x0,4_12 x0,4_13 x0,4_14 x0,4_16 x0,4_18 x0,4_19
 x0,4_20 x0,4_28 x0,4_32 x0,5_1 x0,5_4 x0,5_6 x0,5_7 x0,5_9 x0,5_10 x0,5_12
 x0,5_13 x0,5_14 x0,5_16 x0,5_18 x0,5_19 x0,5_20 x0,5_28 x0,5_32 x0,6_1
 x0,6_4 x0,6_6 x0,6_7 x0,6_9 x0,6_10 x0,6_12 x0,6_13 x0,6_14 x0,6_16
 x0,6_18 x0,6_19 x0,6_20 x0,6_28 x0,6_32 x1,2_1 x1,2_4 x1,2_6 x1,2_7 x1,2_9
 x1,2_10 x1,2_12 x1,2_13 x1,2_14 x1,2_16 x1,2_18 x1,2_19 x1,2_20 x1,2_28
 x1,2_32 x1,3_1 x1,3_4 x1,3_6 x1,3_7 x1,3_9 x1,3_10 x1,3_12 x1,3_13 x1,3_14
 x1,3_16 x1,3_18 x1,3_19 x1,3_20 x1,3_28 x1,3_32 x1,4_1 x1,4_4 x1,4_6
 x1,4_7 x1,4_9 x1,4_10 x1,4_12 x1,4_13 x1,4_14 x1,4_16 x1,4_18 x1,4_19
 x1,4_20 x1,4_28 x1,4_32 x1,5_1 x1,5_4 x1,5_6 x1,5_7 x1,5_9 x1,5_10 x1,5_12
 x1,5_13 x1,5_14 x1,5_16 x1,5_18 x1,5_19 x1,5_20 x1,5_28 x1,5_32 x1,6_1
 x1,6_4 x1,6_6 x1,6_7 x1,6_9 x1,6_10 x1,6_12 x1,6_13 x1,6_14 x1,6_16
 x1,6_18 x1,6_19 x1,6_20 x1,6_28 x1,6_32 x2,3_1 x2,3_4 x2,3_6 x2,3_7 x2,3_9
 x2,3_10 x2,3_12 x2,3_13 x2,3_14 x2,3_16 x2,3_18 x2,3_19 x2,3_20 x2,3_28
 x2,3_32 x2,4_1 x2,4_4 x2,4_6 x2,4_7 x2,4_9 x2,4_10 x2,4_12 x2,4_13 x2,4_14
 x2,4_16 x2,4_18 x2,4_19 x2,4_20 x2,4_28 x2,4_32 x2,5_1 x2,5_4 x2,5_6
 x2,5_7 x2,5_9 x2,5_10 x2,5_12 x2,5_13 x2,5_14 x2,5_16 x2,5_18 x2,5_19
 x2,5_20 x2,5_28 x2,5_32 x2,6_1 x2,6_4 x2,6_6 x2,6_7 x2,6_9 x2,6_10 x2,6_12
 x2,6_13 x2,6_14 x2,6_16 x2,6_18 x2,6_19 x2,6_20 x2,6_28 x2,6_32 x3,4_1
 x3,4_4 x3,4_6 x3,4_7 x3,4_9 x3,4_10 x3,4_12 x3,4_13 x3,4_14 x3,4_16
 x3,4_18 x3,4_19 x3,4_20 x3,4_28 x3,4_32 x3,5_1 x3,5_4 x3,5_6 x3,5_7 x3,5_9
 x3,5_10 x3,5_12 x3,5_13 x3,5_14 x3,5_16 x3,5_18 x3,5_19 x3,5_20 x3,5_28
 x3,5_32 x3,6_1 x3,6_4 x3,6_6 x3,6_7 x3,6_9 x3,6_10 x3,6_12 x3,6_13 x3,6_14
 x3,6_16 x3,6_18 x3,6_19 x3,6_20 x3,6_28 x3,6_32 x4,5_1 x4,5_4 x4,5_6
 x4,5_7 x4,5_9 x4,5_10 x4,5_12 x4,5_13 x4,5_14 x4,5_16 x4,5_18 x4,5_19
 x4,5_20 x4,5_28 x4,5_32 x4,6_1 x4,6_4 x4,6_6 x4,6_7 x4,6_9 x4,6_10 x4,6_12
 x4,6_13 x4,6_14 x4,6_16 x4,6_18 x4,6_19 x4,6_20 x4,6_28 x4,6_32 x5,6_1
 x5,6_4 x5,6_6 x5,6_7 x5,6_9 x5,6_10 x5,6_12 x5,6_13 x5,6_14 x5,6_16
 x5,6_18 x5,6_19 x5,6_20 x5,6_28 x5,6_32
Generals
 p0 p1 p2 p3 p4 p5 p6
End
