logs/full/max/full-06-15-0.sol
# Objective value = 15
x0,1_1 0
x0,1_4 0
x0,1_6 0
x0,1_7 0
x0,1_9 0
x0,1_10 0
x0,1_12 0
x0,1_13 0
x0,1_14 0
x0,1_16 0
x0,1_18 0
x0,1_19 0
x0,1_20 0
x0,1_28 0
x0,1_32 0
x0,2_1 0
x0,2_4 0
x0,2_6 0
x0,2_7 0
x0,2_9 0
x0,2_10 0
x0,2_12 1
x0,2_13 0
x0,2_14 0
x0,2_16 0
x0,2_18 0
x0,2_19 0
x0,2_20 0
x0,2_28 0
x0,2_32 0
x0,3_1 0
x0,3_4 0
x0,3_6 0
x0,3_7 0
x0,3_9 0
x0,3_10 0
x0,3_12 0
x0,3_13 0
x0,3_14 0
x0,3_16 0
x0,3_18 0
x0,3_19 0
x0,3_20 0
x0,3_28 0
x0,3_32 0
x0,4_1 0
x0,4_4 0
x0,4_6 0
x0,4_7 0
x0,4_9 0
x0,4_10 0
x0,4_12 0
x0,4_13 0
x0,4_14 0
x0,4_16 0
x0,4_18 0
x0,4_19 1
x0,4_20 0
x0,4_28 0
x0,4_32 0
x0,5_1 0
x0,5_4 0
x0,5_6 0
x0,5_7 0
x0,5_9 0
x0,5_10 0
x0,5_12 0
x0,5_13 0
x0,5_14 0
x0,5_16 0
x0,5_18 0
x0,5_19 0
x0,5_20 0
x0,5_28 1
x0,5_32 0
x0,6_1 0
x0,6_4 0
x0,6_6 0
x0,6_7 0
x0,6_9 0
x0,6_10 0
x0,6_12 0
x0,6_13 0
x0,6_14 0
x0,6_16 0
x0,6_18 0
x0,6_19 0
x0,6_20 0
x0,6_28 0
x0,6_32 1
x1,2_1 0
x1,2_4 0
x1,2_6 0
x1,2_7 0
x1,2_9 0
x1,2_10 0
x1,2_12 0
x1,2_13 0
x1,2_14 0
x1,2_16 0
x1,2_18 0
x1,2_19 0
x1,2_20 0
x1,2_28 0
x1,2_32 0
x1,3_1 0
x1,3_4 0
x1,3_6 0
x1,3_7 0
x1,3_9 0
x1,3_10 0
x1,3_12 0
x1,3_13 0
x1,3_14 0
x1,3_16 0
x1,3_18 0
x1,3_19 0
x1,3_20 0
x1,3_28 0
x1,3_32 0
x1,4_1 0
x1,4_4 0
x1,4_6 0
x1,4_7 0
x1,4_9 0
x1,4_10 0
x1,4_12 0
x1,4_13 0
x1,4_14 0
x1,4_16 0
x1,4_18 0
x1,4_19 0
x1,4_20 0
x1,4_28 0
x1,4_32 0
x1,5_1 0
x1,5_4 0
x1,5_6 0
x1,5_7 0
x1,5_9 0
x1,5_10 0
x1,5_12 0
x1,5_13 0
x1,5_14 0
x1,5_16 0
x1,5_18 1
x1,5_19 0
x1,5_20 0
x1,5_28 0
x1,5_32 0
x1,6_1 0
x1,6_4 0
x1,6_6 0
x1,6_7 0
x1,6_9 0
x1,6_10 0
x1,6_12 0
x1,6_13 0
x1,6_14 0
x1,6_16 0
x1,6_18 0
x1,6_19 0
x1,6_20 0
x1,6_28 0
x1,6_32 0
x2,3_1 0
x2,3_4 0
x2,3_6 1
x2,3_7 0
x2,3_9 0
x2,3_10 0
x2,3_12 0
x2,3_13 0
x2,3_14 0
x2,3_16 0
x2,3_18 0
x2,3_19 0
x2,3_20 0
x2,3_28 0
x2,3_32 0
x2,4_1 0
x2,4_4 0
x2,4_6 0
x2,4_7 1
x2,4_9 0
x2,4_10 0
x2,4_12 0
x2,4_13 0
x2,4_14 0
x2,4_16 0
x2,4_18 0
x2,4_19 0
x2,4_20 0
x2,4_28 0
x2,4_32 0
x2,5_1 0
x2,5_4 0
x2,5_6 0
x2,5_7 0
x2,5_9 0
x2,5_10 0
x2,5_12 0
x2,5_13 0
x2,5_14 0
x2,5_16 1
x2,5_18 0
x2,5_19 0
x2,5_20 0
x2,5_28 0
x2,5_32 0
x2,6_1 0
x2,6_4 0
x2,6_6 0
x2,6_7 0
x2,6_9 0
x2,6_10 0
x2,6_12 0
x2,6_13 0
x2,6_14 0
x2,6_16 0
x2,6_18 0
x2,6_19 0
x2,6_20 1
x2,6_28 0
x2,6_32 0
x3,4_1 1
x3,4_4 0
x3,4_6 0
x3,4_7 0
x3,4_9 0
x3,4_10 0
x3,4_12 0
x3,4_13 0
x3,4_14 0
x3,4_16 0
x3,4_18 0
x3,4_19 0
x3,4_20 0
x3,4_28 0
x3,4_32 0
x3,5_1 0
x3,5_4 0
x3,5_6 0
x3,5_7 0
x3,5_9 0
x3,5_10 1
x3,5_12 0
x3,5_13 0
x3,5_14 0
x3,5_16 0
x3,5_18 0
x3,5_19 0
x3,5_20 0
x3,5_28 0
x3,5_32 0
x3,6_1 0
x3,6_4 0
x3,6_6 0
x3,6_7 0
x3,6_9 0
x3,6_10 0
x3,6_12 0
x3,6_13 0
x3,6_14 1
x3,6_16 0
x3,6_18 0
x3,6_19 0
x3,6_20 0
x3,6_28 0
x3,6_32 0
x4,5_1 0
x4,5_4 0
x4,5_6 0
x4,5_7 0
x4,5_9 1
x4,5_10 0
x4,5_12 0
x4,5_13 0
x4,5_14 0
x4,5_16 0
x4,5_18 0
x4,5_19 0
x4,5_20 0
x4,5_28 0
x4,5_32 0
x4,6_1 0
x4,6_4 0
x4,6_6 0
x4,6_7 0
x4,6_9 0
x4,6_10 0
x4,6_12 0
x4,6_13 1
x4,6_14 0
x4,6_16 0
x4,6_18 0
x4,6_19 0
x4,6_20 0
x4,6_28 0
x4,6_32 0
x5,6_1 0
x5,6_4 1
x5,6_6 0
x5,6_7 0
x5,6_9 0
x5,6_10 0
x5,6_12 0
x5,6_13 0
x5,6_14 0
x5,6_16 0
x5,6_18 0
x5,6_19 0
x5,6_20 0
x5,6_28 0
x5,6_32 0
p0 1
p1 11
p2 13
p3 19
p4 20
p5 29
p6 33
